120
150
51
35
33
70
79
23
87
30
92
49
98
40
95
26
51
43
30
55
52
74
83
81
41
33
91
98
66
38
53
84
96
85
40
41
92
43
53
34
71
35
63
95
56
42
74
27
96
66
69
86
40
79
31
69
95
69
33
94
99
37
95
40
71
45
33
31
80
29
53
71
90
90
100
42
39
65
57
68
31
24
20
32
52
23
59
35
95
95
72
98
45
71
25
55
47
30
24
77
25
21
52
34
46
44
21
73
76
50
71
33
36
57
39
92
57
90
73
81
40
47
